c Sudoku solution
p cnf 729 0
126 0
165 0
173 0
215 0
244 0
288 0
331 0
349 0
467 0
529 0
564 0
585 0
597 0
625 0
638 0
617 0
671 0
686 0
694 0
734 0
763 0
789 0
855 0
954 0
935 0
445 0
887 0
874 0
919 0
869 0
662 0
643 0
659 0
998 0
368 0
118 0
184 0
382 0
981 0
893 0
923 0
727 0
828 0
947 0
966 0
972 0
421 0
414 0
313 0
324 0
253 0
533 0
222 0
546 0
551 0
458 0
436 0
512 0
578 0
832 0
841 0
711 0
816 0
142 0
748 0
752 0
157 0
261 0
356 0
191 0
139 0
237 0
377 0
395 0
479 0
775 0
796 0
276 0
299 0
483 0
492 0
